packages/chip/verify/formal/e1_axi_lite_interconnect_bmc/model/design_smt2.smt2
; SMT-LIBv2 description generated by Yosys 0.64+197 (git sha1 4e35ed595, clang++ 18.1.8 -fPIC -O3)
; yosys-smt2-module e1_axi_lite_interconnect_props_top
(declare-sort |e1_axi_lite_interconnect_props_top_s| 0)
(declare-fun |e1_axi_lite_interconnect_props_top_is| (|e1_axi_lite_interconnect_props_top_s|) Bool)
(declare-fun |e1_axi_lite_interconnect_props_top#0| (|e1_axi_lite_interconnect_props_top_s|) Bool) ; \clk
; yosys-smt2-input clk 1
; yosys-smt2-wire clk 1
; yosys-smt2-witness {"offset": 0, "path": ["\\clk"], "smtname": "clk", "smtoffset": 0, "type": "input", "width": 1}
(define-fun |e1_axi_lite_interconnect_props_top_n clk| ((state |e1_axi_lite_interconnect_props_top_s|)) Bool (|e1_axi_lite_interconnect_props_top#0| state))
(declare-fun |e1_axi_lite_interconnect_props_top#1| (|e1_axi_lite_interconnect_props_top_s|) (_ BitVec 32)) ; \dbg_m_araddr
; yosys-smt2-input dbg_m_araddr 32
; yosys-smt2-wire dbg_m_araddr 32
; yosys-smt2-witness {"offset": 0, "path": ["\\dbg_m_araddr"], "smtname": "dbg_m_araddr", "smtoffset": 0, "type": "input", "width": 32}
(define-fun |e1_axi_lite_interconnect_props_top_n dbg_m_araddr| ((state |e1_axi_lite_interconnect_props_top_s|)) (_ BitVec 32) (|e1_axi_lite_interconnect_props_top#1| state))
(declare-fun |e1_axi_lite_interconnect_props_top#2| (|e1_axi_lite_interconnect_props_top_s|) Bool) ; \dbg_m_arvalid
; yosys-smt2-input dbg_m_arvalid 1
; yosys-smt2-wire dbg_m_arvalid 1
; yosys-smt2-witness {"offset": 0, "path": ["\\dbg_m_arvalid"], "smtname": "dbg_m_arvalid", "smtoffset": 0, "type": "input", "width": 1}
(define-fun |e1_axi_lite_interconnect_props_top_n dbg_m_arvalid| ((state |e1_axi_lite_interconnect_props_top_s|)) Bool (|e1_axi_lite_interconnect_props_top#2| state))
(declare-fun |e1_axi_lite_interconnect_props_top#3| (|e1_axi_lite_interconnect_props_top_s|) (_ BitVec 32)) ; \dbg_m_awaddr
; yosys-smt2-input dbg_m_awaddr 32
; yosys-smt2-wire dbg_m_awaddr 32
; yosys-smt2-witness {"offset": 0, "path": ["\\dbg_m_awaddr"], "smtname": "dbg_m_awaddr", "smtoffset": 0, "type": "input", "width": 32}
(define-fun |e1_axi_lite_interconnect_props_top_n dbg_m_awaddr| ((state |e1_axi_lite_interconnect_props_top_s|)) (_ BitVec 32) (|e1_axi_lite_interconnect_props_top#3| state))
(declare-fun |e1_axi_lite_interconnect_props_top#4| (|e1_axi_lite_interconnect_props_top_s|) Bool) ; \dbg_m_awvalid
; yosys-smt2-input dbg_m_awvalid 1
; yosys-smt2-wire dbg_m_awvalid 1
; yosys-smt2-witness {"offset": 0, "path": ["\\dbg_m_awvalid"], "smtname": "dbg_m_awvalid", "smtoffset": 0, "type": "input", "width": 1}
(define-fun |e1_axi_lite_interconnect_props_top_n dbg_m_awvalid| ((state |e1_axi_lite_interconnect_props_top_s|)) Bool (|e1_axi_lite_interconnect_props_top#4| state))
(declare-fun |e1_axi_lite_interconnect_props_top#5| (|e1_axi_lite_interconnect_props_top_s|) Bool) ; \dbg_m_bready
; yosys-smt2-input dbg_m_bready 1
; yosys-smt2-wire dbg_m_bready 1
; yosys-smt2-witness {"offset": 0, "path": ["\\dbg_m_bready"], "smtname": "dbg_m_bready", "smtoffset": 0, "type": "input", "width": 1}
(define-fun |e1_axi_lite_interconnect_props_top_n dbg_m_bready| ((state |e1_axi_lite_interconnect_props_top_s|)) Bool (|e1_axi_lite_interconnect_props_top#5| state))
(declare-fun |e1_axi_lite_interconnect_props_top#6| (|e1_axi_lite_interconnect_props_top_s|) Bool) ; \dbg_m_rready
; yosys-smt2-input dbg_m_rready 1
; yosys-smt2-wire dbg_m_rready 1
; yosys-smt2-witness {"offset": 0, "path": ["\\dbg_m_rready"], "smtname": "dbg_m_rready", "smtoffset": 0, "type": "input", "width": 1}
(define-fun |e1_axi_lite_interconnect_props_top_n dbg_m_rready| ((state |e1_axi_lite_interconnect_props_top_s|)) Bool (|e1_axi_lite_interconnect_props_top#6| state))
(declare-fun |e1_axi_lite_interconnect_props_top#7| (|e1_axi_lite_interconnect_props_top_s|) (_ BitVec 32)) ; \dbg_m_wdata
; yosys-smt2-input dbg_m_wdata 32
; yosys-smt2-wire dbg_m_wdata 32
; yosys-smt2-witness {"offset": 0, "path": ["\\dbg_m_wdata"], "smtname": "dbg_m_wdata", "smtoffset": 0, "type": "input", "width": 32}
(define-fun |e1_axi_lite_interconnect_props_top_n dbg_m_wdata| ((state |e1_axi_lite_interconnect_props_top_s|)) (_ BitVec 32) (|e1_axi_lite_interconnect_props_top#7| state))
(declare-fun |e1_axi_lite_interconnect_props_top#8| (|e1_axi_lite_interconnect_props_top_s|) (_ BitVec 4)) ; \dbg_m_wstrb
; yosys-smt2-input dbg_m_wstrb 4
; yosys-smt2-wire dbg_m_wstrb 4
; yosys-smt2-witness {"offset": 0, "path": ["\\dbg_m_wstrb"], "smtname": "dbg_m_wstrb", "smtoffset": 0, "type": "input", "width": 4}
(define-fun |e1_axi_lite_interconnect_props_top_n dbg_m_wstrb| ((state |e1_axi_lite_interconnect_props_top_s|)) (_ BitVec 4) (|e1_axi_lite_interconnect_props_top#8| state))
(declare-fun |e1_axi_lite_interconnect_props_top#9| (|e1_axi_lite_interconnect_props_top_s|) Bool) ; \dbg_m_wvalid
; yosys-smt2-input dbg_m_wvalid 1
; yosys-smt2-wire dbg_m_wvalid 1
; yosys-smt2-witness {"offset": 0, "path": ["\\dbg_m_wvalid"], "smtname": "dbg_m_wvalid", "smtoffset": 0, "type": "input", "width": 1}
(define-fun |e1_axi_lite_interconnect_props_top_n dbg_m_wvalid| ((state |e1_axi_lite_interconnect_props_top_s|)) Bool (|e1_axi_lite_interconnect_props_top#9| state))
(declare-fun |e1_axi_lite_interconnect_props_top#10| (|e1_axi_lite_interconnect_props_top_s|) Bool) ; \display_arready
; yosys-smt2-input display_arready 1
; yosys-smt2-wire display_arready 1
; yosys-smt2-witness {"offset": 0, "path": ["\\display_arready"], "smtname": "display_arready", "smtoffset": 0, "type": "input", "width": 1}
(define-fun |e1_axi_lite_interconnect_props_top_n display_arready| ((state |e1_axi_lite_interconnect_props_top_s|)) Bool (|e1_axi_lite_interconnect_props_top#10| state))
(declare-fun |e1_axi_lite_interconnect_props_top#11| (|e1_axi_lite_interconnect_props_top_s|) Bool) ; \display_awready
; yosys-smt2-input display_awready 1
; yosys-smt2-wire display_awready 1
; yosys-smt2-witness {"offset": 0, "path": ["\\display_awready"], "smtname": "display_awready", "smtoffset": 0, "type": "input", "width": 1}
(define-fun |e1_axi_lite_interconnect_props_top_n display_awready| ((state |e1_axi_lite_interconnect_props_top_s|)) Bool (|e1_axi_lite_interconnect_props_top#11| state))
(declare-fun |e1_axi_lite_interconnect_props_top#12| (|e1_axi_lite_interconnect_props_top_s|) (_ BitVec 2)) ; \display_bresp
; yosys-smt2-input display_bresp 2
; yosys-smt2-wire display_bresp 2
; yosys-smt2-witness {"offset": 0, "path": ["\\display_bresp"], "smtname": "display_bresp", "smtoffset": 0, "type": "input", "width": 2}
(define-fun |e1_axi_lite_interconnect_props_top_n display_bresp| ((state |e1_axi_lite_interconnect_props_top_s|)) (_ BitVec 2) (|e1_axi_lite_interconnect_props_top#12| state))
(declare-fun |e1_axi_lite_interconnect_props_top#13| (|e1_axi_lite_interconnect_props_top_s|) Bool) ; \display_bvalid
; yosys-smt2-input display_bvalid 1
; yosys-smt2-wire display_bvalid 1
; yosys-smt2-witness {"offset": 0, "path": ["\\display_bvalid"], "smtname": "display_bvalid", "smtoffset": 0, "type": "input", "width": 1}
(define-fun |e1_axi_lite_interconnect_props_top_n display_bvalid| ((state |e1_axi_lite_interconnect_props_top_s|)) Bool (|e1_axi_lite_interconnect_props_top#13| state))
(declare-fun |e1_axi_lite_interconnect_props_top#14| (|e1_axi_lite_interconnect_props_top_s|) (_ BitVec 32)) ; \display_rdata
; yosys-smt2-input display_rdata 32
; yosys-smt2-wire display_rdata 32
; yosys-smt2-witness {"offset": 0, "path": ["\\display_rdata"], "smtname": "display_rdata", "smtoffset": 0, "type": "input", "width": 32}
(define-fun |e1_axi_lite_interconnect_props_top_n display_rdata| ((state |e1_axi_lite_interconnect_props_top_s|)) (_ BitVec 32) (|e1_axi_lite_interconnect_props_top#14| state))
(declare-fun |e1_axi_lite_interconnect_props_top#15| (|e1_axi_lite_interconnect_props_top_s|) (_ BitVec 2)) ; \display_rresp
; yosys-smt2-input display_rresp 2
; yosys-smt2-wire display_rresp 2
; yosys-smt2-witness {"offset": 0, "path": ["\\display_rresp"], "smtname": "display_rresp", "smtoffset": 0, "type": "input", "width": 2}
(define-fun |e1_axi_lite_interconnect_props_top_n display_rresp| ((state |e1_axi_lite_interconnect_props_top_s|)) (_ BitVec 2) (|e1_axi_lite_interconnect_props_top#15| state))
(declare-fun |e1_axi_lite_interconnect_props_top#16| (|e1_axi_lite_interconnect_props_top_s|) Bool) ; \display_rvalid
; yosys-smt2-input display_rvalid 1
; yosys-smt2-wire display_rvalid 1
; yosys-smt2-witness {"offset": 0, "path": ["\\display_rvalid"], "smtname": "display_rvalid", "smtoffset": 0, "type": "input", "width": 1}
(define-fun |e1_axi_lite_interconnect_props_top_n display_rvalid| ((state |e1_axi_lite_interconnect_props_top_s|)) Bool (|e1_axi_lite_interconnect_props_top#16| state))
(declare-fun |e1_axi_lite_interconnect_props_top#17| (|e1_axi_lite_interconnect_props_top_s|) Bool) ; \display_wready
; yosys-smt2-input display_wready 1
; yosys-smt2-wire display_wready 1
; yosys-smt2-witness {"offset": 0, "path": ["\\display_wready"], "smtname": "display_wready", "smtoffset": 0, "type": "input", "width": 1}
(define-fun |e1_axi_lite_interconnect_props_top_n display_wready| ((state |e1_axi_lite_interconnect_props_top_s|)) Bool (|e1_axi_lite_interconnect_props_top#17| state))
(declare-fun |e1_axi_lite_interconnect_props_top#18| (|e1_axi_lite_interconnect_props_top_s|) Bool) ; \dma_arready
; yosys-smt2-input dma_arready 1
; yosys-smt2-wire dma_arready 1
; yosys-smt2-witness {"offset": 0, "path": ["\\dma_arready"], "smtname": "dma_arready", "smtoffset": 0, "type": "input", "width": 1}
(define-fun |e1_axi_lite_interconnect_props_top_n dma_arready| ((state |e1_axi_lite_interconnect_props_top_s|)) Bool (|e1_axi_lite_interconnect_props_top#18| state))
(declare-fun |e1_axi_lite_interconnect_props_top#19| (|e1_axi_lite_interconnect_props_top_s|) Bool) ; \dma_awready
; yosys-smt2-input dma_awready 1
; yosys-smt2-wire dma_awready 1
; yosys-smt2-witness {"offset": 0, "path": ["\\dma_awready"], "smtname": "dma_awready", "smtoffset": 0, "type": "input", "width": 1}
(define-fun |e1_axi_lite_interconnect_props_top_n dma_awready| ((state |e1_axi_lite_interconnect_props_top_s|)) Bool (|e1_axi_lite_interconnect_props_top#19| state))
(declare-fun |e1_axi_lite_interconnect_props_top#20| (|e1_axi_lite_interconnect_props_top_s|) (_ BitVec 2)) ; \dma_bresp
; yosys-smt2-input dma_bresp 2
; yosys-smt2-wire dma_bresp 2
; yosys-smt2-witness {"offset": 0, "path": ["\\dma_bresp"], "smtname": "dma_bresp", "smtoffset": 0, "type": "input", "width": 2}
(define-fun |e1_axi_lite_interconnect_props_top_n dma_bresp| ((state |e1_axi_lite_interconnect_props_top_s|)) (_ BitVec 2) (|e1_axi_lite_interconnect_props_top#20| state))
(declare-fun |e1_axi_lite_interconnect_props_top#21| (|e1_axi_lite_interconnect_props_top_s|) Bool) ; \dma_bvalid
; yosys-smt2-input dma_bvalid 1
; yosys-smt2-wire dma_bvalid 1
; yosys-smt2-witness {"offset": 0, "path": ["\\dma_bvalid"], "smtname": "dma_bvalid", "smtoffset": 0, "type": "input", "width": 1}
(define-fun |e1_axi_lite_interconnect_props_top_n dma_bvalid| ((state |e1_axi_lite_interconnect_props_top_s|)) Bool (|e1_axi_lite_interconnect_props_top#21| state))
(declare-fun |e1_axi_lite_interconnect_props_top#22| (|e1_axi_lite_interconnect_props_top_s|) (_ BitVec 32)) ; \dma_m_araddr
; yosys-smt2-input dma_m_araddr 32
; yosys-smt2-wire dma_m_araddr 32
; yosys-smt2-witness {"offset": 0, "path": ["\\dma_m_araddr"], "smtname": "dma_m_araddr", "smtoffset": 0, "type": "input", "width": 32}
(define-fun |e1_axi_lite_interconnect_props_top_n dma_m_araddr| ((state |e1_axi_lite_interconnect_props_top_s|)) (_ BitVec 32) (|e1_axi_lite_interconnect_props_top#22| state))
(declare-fun |e1_axi_lite_interconnect_props_top#23| (|e1_axi_lite_interconnect_props_top_s|) Bool) ; \dma_m_arvalid
; yosys-smt2-input dma_m_arvalid 1
; yosys-smt2-wire dma_m_arvalid 1
; yosys-smt2-witness {"offset": 0, "path": ["\\dma_m_arvalid"], "smtname": "dma_m_arvalid", "smtoffset": 0, "type": "input", "width": 1}
(define-fun |e1_axi_lite_interconnect_props_top_n dma_m_arvalid| ((state |e1_axi_lite_interconnect_props_top_s|)) Bool (|e1_axi_lite_interconnect_props_top#23| state))
(declare-fun |e1_axi_lite_interconnect_props_top#24| (|e1_axi_lite_interconnect_props_top_s|) (_ BitVec 32)) ; \dma_m_awaddr
; yosys-smt2-input dma_m_awaddr 32
; yosys-smt2-wire dma_m_awaddr 32
; yosys-smt2-witness {"offset": 0, "path": ["\\dma_m_awaddr"], "smtname": "dma_m_awaddr", "smtoffset": 0, "type": "input", "width": 32}
(define-fun |e1_axi_lite_interconnect_props_top_n dma_m_awaddr| ((state |e1_axi_lite_interconnect_props_top_s|)) (_ BitVec 32) (|e1_axi_lite_interconnect_props_top#24| state))
(declare-fun |e1_axi_lite_interconnect_props_top#25| (|e1_axi_lite_interconnect_props_top_s|) Bool) ; \dma_m_awvalid
; yosys-smt2-input dma_m_awvalid 1
; yosys-smt2-wire dma_m_awvalid 1
; yosys-smt2-witness {"offset": 0, "path": ["\\dma_m_awvalid"], "smtname": "dma_m_awvalid", "smtoffset": 0, "type": "input", "width": 1}
(define-fun |e1_axi_lite_interconnect_props_top_n dma_m_awvalid| ((state |e1_axi_lite_interconnect_props_top_s|)) Bool (|e1_axi_lite_interconnect_props_top#25| state))
(declare-fun |e1_axi_lite_interconnect_props_top#26| (|e1_axi_lite_interconnect_props_top_s|) Bool) ; \dma_m_bready
; yosys-smt2-input dma_m_bready 1
; yosys-smt2-wire dma_m_bready 1
; yosys-smt2-witness {"offset": 0, "path": ["\\dma_m_bready"], "smtname": "dma_m_bready", "smtoffset": 0, "type": "input", "width": 1}
(define-fun |e1_axi_lite_interconnect_props_top_n dma_m_bready| ((state |e1_axi_lite_interconnect_props_top_s|)) Bool (|e1_axi_lite_interconnect_props_top#26| state))
(declare-fun |e1_axi_lite_interconnect_props_top#27| (|e1_axi_lite_interconnect_props_top_s|) Bool) ; \dma_m_rready
; yosys-smt2-input dma_m_rready 1
; yosys-smt2-wire dma_m_rready 1
; yosys-smt2-witness {"offset": 0, "path": ["\\dma_m_rready"], "smtname": "dma_m_rready", "smtoffset": 0, "type": "input", "width": 1}
(define-fun |e1_axi_lite_interconnect_props_top_n dma_m_rready| ((state |e1_axi_lite_interconnect_props_top_s|)) Bool (|e1_axi_lite_interconnect_props_top#27| state))
(declare-fun |e1_axi_lite_interconnect_props_top#28| (|e1_axi_lite_interconnect_props_top_s|) (_ BitVec 32)) ; \dma_m_wdata
; yosys-smt2-input dma_m_wdata 32
; yosys-smt2-wire dma_m_wdata 32
; yosys-smt2-witness {"offset": 0, "path": ["\\dma_m_wdata"], "smtname": "dma_m_wdata", "smtoffset": 0, "type": "input", "width": 32}
(define-fun |e1_axi_lite_interconnect_props_top_n dma_m_wdata| ((state |e1_axi_lite_interconnect_props_top_s|)) (_ BitVec 32) (|e1_axi_lite_interconnect_props_top#28| state))
(declare-fun |e1_axi_lite_interconnect_props_top#29| (|e1_axi_lite_interconnect_props_top_s|) (_ BitVec 4)) ; \dma_m_wstrb
; yosys-smt2-input dma_m_wstrb 4
; yosys-smt2-wire dma_m_wstrb 4
; yosys-smt2-witness {"offset": 0, "path": ["\\dma_m_wstrb"], "smtname": "dma_m_wstrb", "smtoffset": 0, "type": "input", "width": 4}
(define-fun |e1_axi_lite_interconnect_props_top_n dma_m_wstrb| ((state |e1_axi_lite_interconnect_props_top_s|)) (_ BitVec 4) (|e1_axi_lite_interconnect_props_top#29| state))
(declare-fun |e1_axi_lite_interconnect_props_top#30| (|e1_axi_lite_interconnect_props_top_s|) Bool) ; \dma_m_wvalid
; yosys-smt2-input dma_m_wvalid 1
; yosys-smt2-wire dma_m_wvalid 1
; yosys-smt2-witness {"offset": 0, "path": ["\\dma_m_wvalid"], "smtname": "dma_m_wvalid", "smtoffset": 0, "type": "input", "width": 1}
(define-fun |e1_axi_lite_interconnect_props_top_n dma_m_wvalid| ((state |e1_axi_lite_interconnect_props_top_s|)) Bool (|e1_axi_lite_interconnect_props_top#30| state))
(declare-fun |e1_axi_lite_interconnect_props_top#31| (|e1_axi_lite_interconnect_props_top_s|) (_ BitVec 32)) ; \dma_rdata
; yosys-smt2-input dma_rdata 32
; yosys-smt2-wire dma_rdata 32
; yosys-smt2-witness {"offset": 0, "path": ["\\dma_rdata"], "smtname": "dma_rdata", "smtoffset": 0, "type": "input", "width": 32}
(define-fun |e1_axi_lite_interconnect_props_top_n dma_rdata| ((state |e1_axi_lite_interconnect_props_top_s|)) (_ BitVec 32) (|e1_axi_lite_interconnect_props_top#31| state))
(declare-fun |e1_axi_lite_interconnect_props_top#32| (|e1_axi_lite_interconnect_props_top_s|) (_ BitVec 2)) ; \dma_rresp
; yosys-smt2-input dma_rresp 2
; yosys-smt2-wire dma_rresp 2
; yosys-smt2-witness {"offset": 0, "path": ["\\dma_rresp"], "smtname": "dma_rresp", "smtoffset": 0, "type": "input", "width": 2}
(define-fun |e1_axi_lite_interconnect_props_top_n dma_rresp| ((state |e1_axi_lite_interconnect_props_top_s|)) (_ BitVec 2) (|e1_axi_lite_interconnect_props_top#32| state))
(declare-fun |e1_axi_lite_interconnect_props_top#33| (|e1_axi_lite_interconnect_props_top_s|) Bool) ; \dma_rvalid
; yosys-smt2-input dma_rvalid 1
; yosys-smt2-wire dma_rvalid 1
; yosys-smt2-witness {"offset": 0, "path": ["\\dma_rvalid"], "smtname": "dma_rvalid", "smtoffset": 0, "type": "input", "width": 1}
(define-fun |e1_axi_lite_interconnect_props_top_n dma_rvalid| ((state |e1_axi_lite_interconnect_props_top_s|)) Bool (|e1_axi_lite_interconnect_props_top#33| state))
(declare-fun |e1_axi_lite_interconnect_props_top#34| (|e1_axi_lite_interconnect_props_top_s|) Bool) ; \dma_wready
; yosys-smt2-input dma_wready 1
; yosys-smt2-wire dma_wready 1
; yosys-smt2-witness {"offset": 0, "path": ["\\dma_wready"], "smtname": "dma_wready", "smtoffset": 0, "type": "input", "width": 1}
(define-fun |e1_axi_lite_interconnect_props_top_n dma_wready| ((state |e1_axi_lite_interconnect_props_top_s|)) Bool (|e1_axi_lite_interconnect_props_top#34| state))
(declare-fun |e1_axi_lite_interconnect_props_top#35| (|e1_axi_lite_interconnect_props_top_s|) Bool) ; \dram_arready
; yosys-smt2-input dram_arready 1
; yosys-smt2-wire dram_arready 1
; yosys-smt2-witness {"offset": 0, "path": ["\\dram_arready"], "smtname": "dram_arready", "smtoffset": 0, "type": "input", "width": 1}
(define-fun |e1_axi_lite_interconnect_props_top_n dram_arready| ((state |e1_axi_lite_interconnect_props_top_s|)) Bool (|e1_axi_lite_interconnect_props_top#35| state))
(declare-fun |e1_axi_lite_interconnect_props_top#36| (|e1_axi_lite_interconnect_props_top_s|) Bool) ; \dram_awready
; yosys-smt2-input dram_awready 1
; yosys-smt2-wire dram_awready 1
; yosys-smt2-witness {"offset": 0, "path": ["\\dram_awready"], "smtname": "dram_awready", "smtoffset": 0, "type": "input", "width": 1}
(define-fun |e1_axi_lite_interconnect_props_top_n dram_awready| ((state |e1_axi_lite_interconnect_props_top_s|)) Bool (|e1_axi_lite_interconnect_props_top#36| state))
(declare-fun |e1_axi_lite_interconnect_props_top#37| (|e1_axi_lite_interconnect_props_top_s|) (_ BitVec 2)) ; \dram_bresp
; yosys-smt2-input dram_bresp 2
; yosys-smt2-wire dram_bresp 2
; yosys-smt2-witness {"offset": 0, "path": ["\\dram_bresp"], "smtname": "dram_bresp", "smtoffset": 0, "type": "input", "width": 2}
(define-fun |e1_axi_lite_interconnect_props_top_n dram_bresp| ((state |e1_axi_lite_interconnect_props_top_s|)) (_ BitVec 2) (|e1_axi_lite_interconnect_props_top#37| state))
(declare-fun |e1_axi_lite_interconnect_props_top#38| (|e1_axi_lite_interconnect_props_top_s|) Bool) ; \dram_bvalid
; yosys-smt2-input dram_bvalid 1
; yosys-smt2-wire dram_bvalid 1
; yosys-smt2-witness {"offset": 0, "path": ["\\dram_bvalid"], "smtname": "dram_bvalid", "smtoffset": 0, "type": "input", "width": 1}
(define-fun |e1_axi_lite_interconnect_props_top_n dram_bvalid| ((state |e1_axi_lite_interconnect_props_top_s|)) Bool (|e1_axi_lite_interconnect_props_top#38| state))
(declare-fun |e1_axi_lite_interconnect_props_top#39| (|e1_axi_lite_interconnect_props_top_s|) (_ BitVec 32)) ; \dram_rdata
; yosys-smt2-input dram_rdata 32
; yosys-smt2-wire dram_rdata 32
; yosys-smt2-witness {"offset": 0, "path": ["\\dram_rdata"], "smtname": "dram_rdata", "smtoffset": 0, "type": "input", "width": 32}
(define-fun |e1_axi_lite_interconnect_props_top_n dram_rdata| ((state |e1_axi_lite_interconnect_props_top_s|)) (_ BitVec 32) (|e1_axi_lite_interconnect_props_top#39| state))
(declare-fun |e1_axi_lite_interconnect_props_top#40| (|e1_axi_lite_interconnect_props_top_s|) (_ BitVec 2)) ; \dram_rresp
; yosys-smt2-input dram_rresp 2
; yosys-smt2-wire dram_rresp 2
; yosys-smt2-witness {"offset": 0, "path": ["\\dram_rresp"], "smtname": "dram_rresp", "smtoffset": 0, "type": "input", "width": 2}
(define-fun |e1_axi_lite_interconnect_props_top_n dram_rresp| ((state |e1_axi_lite_interconnect_props_top_s|)) (_ BitVec 2) (|e1_axi_lite_interconnect_props_top#40| state))
(declare-fun |e1_axi_lite_interconnect_props_top#41| (|e1_axi_lite_interconnect_props_top_s|) Bool) ; \dram_rvalid
; yosys-smt2-input dram_rvalid 1
; yosys-smt2-wire dram_rvalid 1
; yosys-smt2-witness {"offset": 0, "path": ["\\dram_rvalid"], "smtname": "dram_rvalid", "smtoffset": 0, "type": "input", "width": 1}
(define-fun |e1_axi_lite_interconnect_props_top_n dram_rvalid| ((state |e1_axi_lite_interconnect_props_top_s|)) Bool (|e1_axi_lite_interconnect_props_top#41| state))
(declare-fun |e1_axi_lite_interconnect_props_top#42| (|e1_axi_lite_interconnect_props_top_s|) Bool) ; \dram_wready
; yosys-smt2-input dram_wready 1
; yosys-smt2-wire dram_wready 1
; yosys-smt2-witness {"offset": 0, "path": ["\\dram_wready"], "smtname": "dram_wready", "smtoffset": 0, "type": "input", "width": 1}
(define-fun |e1_axi_lite_interconnect_props_top_n dram_wready| ((state |e1_axi_lite_interconnect_props_top_s|)) Bool (|e1_axi_lite_interconnect_props_top#42| state))
(declare-fun |e1_axi_lite_interconnect_props_top#43| (|e1_axi_lite_interconnect_props_top_s|) Bool) ; \intc_arready
; yosys-smt2-input intc_arready 1
; yosys-smt2-wire intc_arready 1
; yosys-smt2-witness {"offset": 0, "path": ["\\intc_arready"], "smtname": "intc_arready", "smtoffset": 0, "type": "input", "width": 1}
(define-fun |e1_axi_lite_interconnect_props_top_n intc_arready| ((state |e1_axi_lite_interconnect_props_top_s|)) Bool (|e1_axi_lite_interconnect_props_top#43| state))
(declare-fun |e1_axi_lite_interconnect_props_top#44| (|e1_axi_lite_interconnect_props_top_s|) Bool) ; \intc_awready
; yosys-smt2-input intc_awready 1
; yosys-smt2-wire intc_awready 1
; yosys-smt2-witness {"offset": 0, "path": ["\\intc_awready"], "smtname": "intc_awready", "smtoffset": 0, "type": "input", "width": 1}
(define-fun |e1_axi_lite_interconnect_props_top_n intc_awready| ((state |e1_axi_lite_interconnect_props_top_s|)) Bool (|e1_axi_lite_interconnect_props_top#44| state))
(declare-fun |e1_axi_lite_interconnect_props_top#45| (|e1_axi_lite_interconnect_props_top_s|) (_ BitVec 2)) ; \intc_bresp
; yosys-smt2-input intc_bresp 2
; yosys-smt2-wire intc_bresp 2
; yosys-smt2-witness {"offset": 0, "path": ["\\intc_bresp"], "smtname": "intc_bresp", "smtoffset": 0, "type": "input", "width": 2}
(define-fun |e1_axi_lite_interconnect_props_top_n intc_bresp| ((state |e1_axi_lite_interconnect_props_top_s|)) (_ BitVec 2) (|e1_axi_lite_interconnect_props_top#45| state))
(declare-fun |e1_axi_lite_interconnect_props_top#46| (|e1_axi_lite_interconnect_props_top_s|) Bool) ; \intc_bvalid
; yosys-smt2-input intc_bvalid 1
; yosys-smt2-wire intc_bvalid 1
; yosys-smt2-witness {"offset": 0, "path": ["\\intc_bvalid"], "smtname": "intc_bvalid", "smtoffset": 0, "type": "input", "width": 1}
(define-fun |e1_axi_lite_interconnect_props_top_n intc_bvalid| ((state |e1_axi_lite_interconnect_props_top_s|)) Bool (|e1_axi_lite_interconnect_props_top#46| state))
(declare-fun |e1_axi_lite_interconnect_props_top#47| (|e1_axi_lite_interconnect_props_top_s|) (_ BitVec 32)) ; \intc_rdata
; yosys-smt2-input intc_rdata 32
; yosys-smt2-wire intc_rdata 32
; yosys-smt2-witness {"offset": 0, "path": ["\\intc_rdata"], "smtname": "intc_rdata", "smtoffset": 0, "type": "input", "width": 32}
(define-fun |e1_axi_lite_interconnect_props_top_n intc_rdata| ((state |e1_axi_lite_interconnect_props_top_s|)) (_ BitVec 32) (|e1_axi_lite_interconnect_props_top#47| state))
(declare-fun |e1_axi_lite_interconnect_props_top#48| (|e1_axi_lite_interconnect_props_top_s|) (_ BitVec 2)) ; \intc_rresp
; yosys-smt2-input intc_rresp 2
; yosys-smt2-wire intc_rresp 2
; yosys-smt2-witness {"offset": 0, "path": ["\\intc_rresp"], "smtname": "intc_rresp", "smtoffset": 0, "type": "input", "width": 2}
(define-fun |e1_axi_lite_interconnect_props_top_n intc_rresp| ((state |e1_axi_lite_interconnect_props_top_s|)) (_ BitVec 2) (|e1_axi_lite_interconnect_props_top#48| state))
(declare-fun |e1_axi_lite_interconnect_props_top#49| (|e1_axi_lite_interconnect_props_top_s|) Bool) ; \intc_rvalid
; yosys-smt2-input intc_rvalid 1
; yosys-smt2-wire intc_rvalid 1
; yosys-smt2-witness {"offset": 0, "path": ["\\intc_rvalid"], "smtname": "intc_rvalid", "smtoffset": 0, "type": "input", "width": 1}
(define-fun |e1_axi_lite_interconnect_props_top_n intc_rvalid| ((state |e1_axi_lite_interconnect_props_top_s|)) Bool (|e1_axi_lite_interconnect_props_top#49| state))
(declare-fun |e1_axi_lite_interconnect_props_top#50| (|e1_axi_lite_interconnect_props_top_s|) Bool) ; \intc_wready
; yosys-smt2-input intc_wready 1
; yosys-smt2-wire intc_wready 1
; yosys-smt2-witness {"offset": 0, "path": ["\\intc_wready"], "smtname": "intc_wready", "smtoffset": 0, "type": "input", "width": 1}
(define-fun |e1_axi_lite_interconnect_props_top_n intc_wready| ((state |e1_axi_lite_interconnect_props_top_s|)) Bool (|e1_axi_lite_interconnect_props_top#50| state))
(declare-fun |e1_axi_lite_interconnect_props_top#51| (|e1_axi_lite_interconnect_props_top_s|) (_ BitVec 32)) ; \m_axil_araddr
; yosys-smt2-input m_axil_araddr 32
; yosys-smt2-wire m_axil_araddr 32
; yosys-smt2-witness {"offset": 0, "path": ["\\m_axil_araddr"], "smtname": "m_axil_araddr", "smtoffset": 0, "type": "input", "width": 32}
(define-fun |e1_axi_lite_interconnect_props_top_n m_axil_araddr| ((state |e1_axi_lite_interconnect_props_top_s|)) (_ BitVec 32) (|e1_axi_lite_interconnect_props_top#51| state))
(declare-fun |e1_axi_lite_interconnect_props_top#52| (|e1_axi_lite_interconnect_props_top_s|) Bool) ; \m_axil_arvalid
; yosys-smt2-input m_axil_arvalid 1
; yosys-smt2-wire m_axil_arvalid 1
; yosys-smt2-witness {"offset": 0, "path": ["\\m_axil_arvalid"], "smtname": "m_axil_arvalid", "smtoffset": 0, "type": "input", "width": 1}
(define-fun |e1_axi_lite_interconnect_props_top_n m_axil_arvalid| ((state |e1_axi_lite_interconnect_props_top_s|)) Bool (|e1_axi_lite_interconnect_props_top#52| state))
(declare-fun |e1_axi_lite_interconnect_props_top#53| (|e1_axi_lite_interconnect_props_top_s|) (_ BitVec 32)) ; \m_axil_awaddr
; yosys-smt2-input m_axil_awaddr 32
; yosys-smt2-wire m_axil_awaddr 32
; yosys-smt2-witness {"offset": 0, "path": ["\\m_axil_awaddr"], "smtname": "m_axil_awaddr", "smtoffset": 0, "type": "input", "width": 32}
(define-fun |e1_axi_lite_interconnect_props_top_n m_axil_awaddr| ((state |e1_axi_lite_interconnect_props_top_s|)) (_ BitVec 32) (|e1_axi_lite_interconnect_props_top#53| state))
(declare-fun |e1_axi_lite_interconnect_props_top#54| (|e1_axi_lite_interconnect_props_top_s|) Bool) ; \m_axil_awvalid
; yosys-smt2-input m_axil_awvalid 1
; yosys-smt2-wire m_axil_awvalid 1
; yosys-smt2-witness {"offset": 0, "path": ["\\m_axil_awvalid"], "smtname": "m_axil_awvalid", "smtoffset": 0, "type": "input", "width": 1}
(define-fun |e1_axi_lite_interconnect_props_top_n m_axil_awvalid| ((state |e1_axi_lite_interconnect_props_top_s|)) Bool (|e1_axi_lite_interconnect_props_top#54| state))
(declare-fun |e1_axi_lite_interconnect_props_top#55| (|e1_axi_lite_interconnect_props_top_s|) Bool) ; \m_axil_bready
; yosys-smt2-input m_axil_bready 1
; yosys-smt2-wire m_axil_bready 1
; yosys-smt2-witness {"offset": 0, "path": ["\\m_axil_bready"], "smtname": "m_axil_bready", "smtoffset": 0, "type": "input", "width": 1}
(define-fun |e1_axi_lite_interconnect_props_top_n m_axil_bready| ((state |e1_axi_lite_interconnect_props_top_s|)) Bool (|e1_axi_lite_interconnect_props_top#55| state))
(declare-fun |e1_axi_lite_interconnect_props_top#56| (|e1_axi_lite_interconnect_props_top_s|) Bool) ; \m_axil_rready
; yosys-smt2-input m_axil_rready 1
; yosys-smt2-wire m_axil_rready 1
; yosys-smt2-witness {"offset": 0, "path": ["\\m_axil_rready"], "smtname": "m_axil_rready", "smtoffset": 0, "type": "input", "width": 1}
(define-fun |e1_axi_lite_interconnect_props_top_n m_axil_rready| ((state |e1_axi_lite_interconnect_props_top_s|)) Bool (|e1_axi_lite_interconnect_props_top#56| state))
(declare-fun |e1_axi_lite_interconnect_props_top#57| (|e1_axi_lite_interconnect_props_top_s|) (_ BitVec 32)) ; \m_axil_wdata
; yosys-smt2-input m_axil_wdata 32
; yosys-smt2-wire m_axil_wdata 32
; yosys-smt2-witness {"offset": 0, "path": ["\\m_axil_wdata"], "smtname": "m_axil_wdata", "smtoffset": 0, "type": "input", "width": 32}
(define-fun |e1_axi_lite_interconnect_props_top_n m_axil_wdata| ((state |e1_axi_lite_interconnect_props_top_s|)) (_ BitVec 32) (|e1_axi_lite_interconnect_props_top#57| state))
(declare-fun |e1_axi_lite_interconnect_props_top#58| (|e1_axi_lite_interconnect_props_top_s|) (_ BitVec 4)) ; \m_axil_wstrb
; yosys-smt2-input m_axil_wstrb 4
; yosys-smt2-wire m_axil_wstrb 4
; yosys-smt2-witness {"offset": 0, "path": ["\\m_axil_wstrb"], "smtname": "m_axil_wstrb", "smtoffset": 0, "type": "input", "width": 4}
(define-fun |e1_axi_lite_interconnect_props_top_n m_axil_wstrb| ((state |e1_axi_lite_interconnect_props_top_s|)) (_ BitVec 4) (|e1_axi_lite_interconnect_props_top#58| state))
(declare-fun |e1_axi_lite_interconnect_props_top#59| (|e1_axi_lite_interconnect_props_top_s|) Bool) ; \m_axil_wvalid
; yosys-smt2-input m_axil_wvalid 1
; yosys-smt2-wire m_axil_wvalid 1
; yosys-smt2-witness {"offset": 0, "path": ["\\m_axil_wvalid"], "smtname": "m_axil_wvalid", "smtoffset": 0, "type": "input", "width": 1}
(define-fun |e1_axi_lite_interconnect_props_top_n m_axil_wvalid| ((state |e1_axi_lite_interconnect_props_top_s|)) Bool (|e1_axi_lite_interconnect_props_top#59| state))
(declare-fun |e1_axi_lite_interconnect_props_top#60| (|e1_axi_lite_interconnect_props_top_s|) Bool) ; \npu_arready
; yosys-smt2-input npu_arready 1
; yosys-smt2-wire npu_arready 1
; yosys-smt2-witness {"offset": 0, "path": ["\\npu_arready"], "smtname": "npu_arready", "smtoffset": 0, "type": "input", "width": 1}
(define-fun |e1_axi_lite_interconnect_props_top_n npu_arready| ((state |e1_axi_lite_interconnect_props_top_s|)) Bool (|e1_axi_lite_interconnect_props_top#60| state))
(declare-fun |e1_axi_lite_interconnect_props_top#61| (|e1_axi_lite_interconnect_props_top_s|) Bool) ; \npu_awready
; yosys-smt2-input npu_awready 1
; yosys-smt2-wire npu_awready 1
; yosys-smt2-witness {"offset": 0, "path": ["\\npu_awready"], "smtname": "npu_awready", "smtoffset": 0, "type": "input", "width": 1}
(define-fun |e1_axi_lite_interconnect_props_top_n npu_awready| ((state |e1_axi_lite_interconnect_props_top_s|)) Bool (|e1_axi_lite_interconnect_props_top#61| state))
(declare-fun |e1_axi_lite_interconnect_props_top#62| (|e1_axi_lite_interconnect_props_top_s|) (_ BitVec 2)) ; \npu_bresp
; yosys-smt2-input npu_bresp 2
; yosys-smt2-wire npu_bresp 2
; yosys-smt2-witness {"offset": 0, "path": ["\\npu_bresp"], "smtname": "npu_bresp", "smtoffset": 0, "type": "input", "width": 2}
(define-fun |e1_axi_lite_interconnect_props_top_n npu_bresp| ((state |e1_axi_lite_interconnect_props_top_s|)) (_ BitVec 2) (|e1_axi_lite_interconnect_props_top#62| state))
(declare-fun |e1_axi_lite_interconnect_props_top#63| (|e1_axi_lite_interconnect_props_top_s|) Bool) ; \npu_bvalid
; yosys-smt2-input npu_bvalid 1
; yosys-smt2-wire npu_bvalid 1
; yosys-smt2-witness {"offset": 0, "path": ["\\npu_bvalid"], "smtname": "npu_bvalid", "smtoffset": 0, "type": "input", "width": 1}
(define-fun |e1_axi_lite_interconnect_props_top_n npu_bvalid| ((state |e1_axi_lite_interconnect_props_top_s|)) Bool (|e1_axi_lite_interconnect_props_top#63| state))
(declare-fun |e1_axi_lite_interconnect_props_top#64| (|e1_axi_lite_interconnect_props_top_s|) (_ BitVec 32)) ; \npu_rdata
; yosys-smt2-input npu_rdata 32
; yosys-smt2-wire npu_rdata 32
; yosys-smt2-witness {"offset": 0, "path": ["\\npu_rdata"], "smtname": "npu_rdata", "smtoffset": 0, "type": "input", "width": 32}
(define-fun |e1_axi_lite_interconnect_props_top_n npu_rdata| ((state |e1_axi_lite_interconnect_props_top_s|)) (_ BitVec 32) (|e1_axi_lite_interconnect_props_top#64| state))
(declare-fun |e1_axi_lite_interconnect_props_top#65| (|e1_axi_lite_interconnect_props_top_s|) (_ BitVec 2)) ; \npu_rresp
; yosys-smt2-input npu_rresp 2
; yosys-smt2-wire npu_rresp 2
; yosys-smt2-witness {"offset": 0, "path": ["\\npu_rresp"], "smtname": "npu_rresp", "smtoffset": 0, "type": "input", "width": 2}
(define-fun |e1_axi_lite_interconnect_props_top_n npu_rresp| ((state |e1_axi_lite_interconnect_props_top_s|)) (_ BitVec 2) (|e1_axi_lite_interconnect_props_top#65| state))
(declare-fun |e1_axi_lite_interconnect_props_top#66| (|e1_axi_lite_interconnect_props_top_s|) Bool) ; \npu_rvalid
; yosys-smt2-input npu_rvalid 1
; yosys-smt2-wire npu_rvalid 1
; yosys-smt2-witness {"offset": 0, "path": ["\\npu_rvalid"], "smtname": "npu_rvalid", "smtoffset": 0, "type": "input", "width": 1}
(define-fun |e1_axi_lite_interconnect_props_top_n npu_rvalid| ((state |e1_axi_lite_interconnect_props_top_s|)) Bool (|e1_axi_lite_interconnect_props_top#66| state))
(declare-fun |e1_axi_lite_interconnect_props_top#67| (|e1_axi_lite_interconnect_props_top_s|) Bool) ; \npu_wready
; yosys-smt2-input npu_wready 1
; yosys-smt2-wire npu_wready 1
; yosys-smt2-witness {"offset": 0, "path": ["\\npu_wready"], "smtname": "npu_wready", "smtoffset": 0, "type": "input", "width": 1}
(define-fun |e1_axi_lite_interconnect_props_top_n npu_wready| ((state |e1_axi_lite_interconnect_props_top_s|)) Bool (|e1_axi_lite_interconnect_props_top#67| state))
(declare-fun |e1_axi_lite_interconnect_props_top#68| (|e1_axi_lite_interconnect_props_top_s|) Bool) ; \rst_n
; yosys-smt2-input rst_n 1
; yosys-smt2-wire rst_n 1
; yosys-smt2-witness {"offset": 0, "path": ["\\rst_n"], "smtname": "rst_n", "smtoffset": 0, "type": "input", "width": 1}
(define-fun |e1_axi_lite_interconnect_props_top_n rst_n| ((state |e1_axi_lite_interconnect_props_top_s|)) Bool (|e1_axi_lite_interconnect_props_top#68| state))
(define-fun |e1_axi_lite_interconnect_props_top_a| ((state |e1_axi_lite_interconnect_props_top_s|)) Bool true)
(define-fun |e1_axi_lite_interconnect_props_top_u| ((state |e1_axi_lite_interconnect_props_top_s|)) Bool true)
(define-fun |e1_axi_lite_interconnect_props_top_i| ((state |e1_axi_lite_interconnect_props_top_s|)) Bool true)
(define-fun |e1_axi_lite_interconnect_props_top_h| ((state |e1_axi_lite_interconnect_props_top_s|)) Bool true)
(define-fun |e1_axi_lite_interconnect_props_top_t| ((state |e1_axi_lite_interconnect_props_top_s|) (next_state |e1_axi_lite_interconnect_props_top_s|)) Bool true) ; end of module e1_axi_lite_interconnect_props_top
; yosys-smt2-topmod e1_axi_lite_interconnect_props_top
; end of yosys output
